time,effective_strain_avg,immobile_disloactions,mobile_dislocations,temperature,vonmises_stress
0,0,0,0,0,0
2,1.9125254897937e-11,439999997408.05,5999998960496.4,900,633699.99995862
4,9.5493815935867e-11,439999987058.06,5999994809625.3,900,1267399.999953
6,1.9944932319729e-10,439999972969.34,5999989159367,900,1901100.0000055
8,3.2623139845624e-10,439999959589.85,5999982794077.8,900,2534800.0000142
10,4.8212845608364e-10,439999946984.93,5999975554880.4,900,3168499.9999963
