time,effective_strain_avg,immobile_disloactions,mobile_dislocations,temperature,vonmises_stress
0,0,0,0,0,0
2,1.9128143730209e-11,439999997407.73,5999998960369.2,900,633699.99994933
4,9.5500494309005e-11,439999987057.62,5999994809449.6,900,1267399.9999715
6,1.9945541459964e-10,439999972968.9,5999989159191.3,900,1901099.999969
8,3.2623748983562e-10,439999959589.41,5999982793902,900,2534799.9999977
10,4.8213454743643e-10,439999946984.49,5999975554704.7,900,3168500.0000207
