time,effective_strain_avg,immobile_disloactions,mobile_dislocations,temperature,vonmises_stress
0,0,0,0,0,0
2,1.9125178100197e-11,439999997408.05,5999999997408.1,900,633699.99998787
4,9.5492475129544e-11,439999987058.06,5999999987058.1,900,1267399.9999703
6,1.9944767373775e-10,439999972969.36,5999999972969.4,900,1901100.0000138
8,3.2623128677861e-10,439999959589.91,5999999959589.9,900,2534800.0000092
10,4.8213134184069e-10,439999946985.07,5999999946985.1,900,3168499.9999981
