time,effective_strain_avg,immobile_disloactions,mobile_dislocations,temperature,vonmises_stress
0,0,0,0,0,0
2,1.9125178100197e-11,439999997408.05,5999998960496.4,900,633699.99998787
4,9.549238617714e-11,439999987058.06,5999994809625.3,900,1267399.9999795
6,1.9944698016198e-10,439999972969.34,5999989159367,900,1901099.9999694
8,3.2622905541876e-10,439999959589.85,5999982794077.8,900,2534799.9999901
10,4.8212611304582e-10,439999946984.93,5999975554880.4,900,3168500.0000138
